p cnf 892 2288
c ind 875 879 870 876 805 871 821 877 889 817 0
c ind 818 838 852 880 839 867 857 882 868 872 0
c ind 873 878 888 890 855 858 811 806 810 874 0
c ind 883 808 869 886 807 820 865 885 809 853 0
c ind 854 864 881 866 856 861 826 887 850 859 0
c ind 849 846 851 884 825 833 842 845 843 863 0
c ind 834 829 844 862 824 847 822 827 860 840 0
c ind 848 812 816 832 828 819 837 815 831 835 0
c ind 814 830 836 813 823 841 1 0
c ret 533 665 666 667 668 669 670 671 534 672 0
c ret 673 674 675 676 677 678 679 577 680 578 0
c ret 681 682 535 683 684 685 579 686 687 688 0
c ret 689 536 690 691 692 693 694 695 696 697 0
c ret 580 698 581 699 700 701 537 702 703 704 0
c ret 705 706 707 708 709 710 711 538 539 582 0
c ret 540 712 713 714 715 716 717 718 719 583 0
c ret 720 721 722 723 724 541 584 725 726 727 0
c ret 585 728 729 730 542 731 732 733 734 735 0
c ret 525 543 736 737 738 739 544 740 741 742 0
c ret 743 586 587 744 745 545 588 746 747 748 0
c ret 749 750 751 752 546 753 754 755 547 756 0
c ret 757 758 759 760 589 761 762 763 764 765 0
c ret 766 767 768 548 769 770 771 772 590 773 0
c ret 774 775 776 777 778 779 780 781 591 549 0
c ret 782 783 784 785 786 787 788 789 550 790 0
c ret 791 592 792 593 793 794 795 796 797 798 0
c ret 799 800 526 551 801 802 803 804 552 594 0
c ret 595 596 597 553 598 599 600 601 554 555 0
c ret 602 603 556 604 605 606 557 607 608 527 0
c ret 558 609 610 611 612 613 614 615 616 559 0
c ret 617 560 561 562 618 563 528 619 620 564 0
c ret 565 621 566 622 567 568 623 624 625 569 0
c ret 529 570 626 627 628 629 630 631 632 633 0
c ret 634 530 635 636 637 638 639 640 641 642 0
c ret 643 644 645 646 531 571 647 572 648 649 0
c ret 650 573 574 651 652 653 654 532 655 656 0
c ret 657 658 659 575 660 576 661 662 663 664 0
2 3 203 266 -390 0
-2 390 0
-2 -266 0
-2 -3 0
-2 -203 0
3 190 -531 0
3 4 163 190 0
-3 -190 0
-3 -4 531 0
-3 -163 531 0
4 -111 708 0
4 5 708 709 0
-4 -708 0
-4 111 -709 0
-4 -5 111 0
5 6 71 0
5 6 710 0
5 6 -651 0
-5 -6 0
-5 -71 651 -710 0
6 -70 710 711 0
6 -7 710 -711 0
-6 -710 0
-6 7 -711 0
-6 70 711 0
7 -8 -540 622 626 0
7 -8 540 -622 626 0
-7 8 0
-7 540 622 0
-7 -626 0
-7 -540 -622 0
8 -9 38 -39 -61 0
-8 61 0
-8 9 0
-8 39 0
-8 -38 0
9 10 -34 -541 0
9 10 -22 -34 0
-9 34 0
-9 -10 0
-9 22 541 0
10 11 12 0
-10 -11 0
-10 -12 0
11 541 560 0
-11 -541 0
-11 -560 0
12 -15 -541 0
12 13 541 0
-12 -13 541 0
-12 15 -541 0
13 -559 -580 0
13 -14 -580 0
-13 580 0
-13 14 559 0
14 -552 -553 -581 0
-14 552 0
-14 553 0
-14 581 0
13 15 16 0
15 -16 609 0
-13 -15 16 0
-15 -16 -609 0
16 17 560 0
-16 -560 0
-16 -17 0
17 18 -610 0
-17 610 0
-17 -18 0
18 19 613 0
18 19 614 0
-18 -19 0
-18 -613 -614 0
19 20 -21 560 610 0
-19 21 0
-19 -20 0
-19 -560 0
-19 -610 0
20 561 570 -617 0
-20 617 0
-20 -570 0
-20 -561 0
21 -611 613 614 0
-21 611 0
-21 -614 0
-21 -613 0
22 -23 -28 0
22 -23 32 0
-22 23 0
-22 28 -32 0
23 24 25 0
23 24 551 0
-23 -24 0
-23 -25 -551 0
24 -586 587 -588 0
-24 586 0
-24 -587 0
-24 588 0
25 26 27 0
25 26 -573 -574 0
-25 -26 0
-25 -27 573 0
-25 -27 574 0
26 -549 -571 0
26 -549 -572 0
-26 549 0
-26 571 572 0
27 550 -571 -572 0
-27 572 0
-27 571 0
-27 -550 0
28 -29 595 0
-28 -595 0
-28 29 0
29 -31 567 0
29 -31 -578 0
29 30 -31 0
-29 31 0
-29 -30 -567 578 0
30 597 599 600 -601 0
-30 601 0
-30 -600 0
-30 -597 0
-30 -599 0
31 599 600 0
31 578 597 0
31 597 600 0
31 578 599 0
-31 -597 -599 0
-31 -578 -600 0
32 -33 602 0
-32 -602 0
-32 33 0
33 -578 597 0
33 578 596 0
-33 578 -596 0
-33 -578 -597 0
34 36 -623 0
34 -35 36 0
-34 -36 0
-34 35 623 0
35 541 556 0
-35 -541 0
-35 -556 0
36 37 603 0
-36 -603 0
-36 -37 0
37 577 578 0
37 565 -578 0
-37 -577 578 0
-37 -565 -578 0
15 38 -541 0
38 -541 -556 606 0
-38 541 0
-15 -38 556 0
-15 -38 -606 0
-23 39 -40 52 -53 0
-39 53 0
23 -39 0
-39 40 0
-39 -52 0
40 -41 50 556 0
40 -41 -48 50 0
-40 41 0
-40 -50 0
-40 48 -556 0
41 -43 -45 -559 0
41 42 -43 -45 0
-41 45 0
-41 43 0
-41 -42 559 0
42 552 -560 0
-42 -552 0
-42 560 0
43 44 550 0
43 44 -549 0
43 44 551 0
-43 -44 0
-43 549 -550 -551 0
44 552 561 0
44 -552 553 0
-44 -552 -553 0
-44 552 -561 0
45 -46 47 -563 0
42 45 -46 47 0
-45 46 0
-45 -47 0
-42 -45 563 0
46 -542 -569 -589 590 0
-46 589 0
-46 -590 0
-46 542 0
-46 569 0
47 -556 591 0
47 -582 591 0
-47 -591 0
-47 556 582 0
48 49 -555 -575 0
48 49 554 -575 0
-48 575 0
-48 -49 0
-48 -554 555 0
49 557 -558 0
49 557 576 0
-49 -557 0
-49 558 -576 0
50 -51 -544 0
50 -544 546 -548 0
-50 544 0
-50 51 -546 0
-50 51 548 0
51 -543 545 -546 547 0
-51 546 0
-51 -547 0
-51 543 0
-51 -545 0
-13 52 -560 0
-52 560 0
13 -52 0
-37 53 -55 -58 0
53 54 -55 -58 0
-53 58 0
-53 55 0
37 -53 -54 0
54 564 -579 0
-54 -564 0
-54 579 0
55 56 57 556 0
55 56 57 -582 0
-55 -57 0
-55 -56 0
-55 -556 582 0
56 561 570 0
-56 -561 0
-56 -570 0
57 567 -568 0
-57 -567 0
-57 568 0
58 59 60 0
58 59 552 0
58 59 559 0
-58 -59 0
-58 -60 -552 -559 0
59 564 -569 0
59 564 -565 -566 0
-59 -564 0
-59 565 569 0
-59 566 569 0
60 -560 -561 562 0
-60 560 0
-60 561 0
-60 -562 0
61 -62 -66 567 0
61 -62 65 -66 0
-61 66 0
-61 62 0
-61 -65 -567 0
-22 62 -603 0
-22 62 -63 569 0
22 -62 0
-62 -569 603 0
-62 63 603 0
63 -64 604 0
-63 -604 0
-63 64 0
64 598 599 0
64 -578 599 0
64 566 578 -599 0
-64 -566 -599 0
-64 -578 -599 0
-64 578 -598 599 0
-28 -33 65 0
-28 -64 65 0
28 -65 0
33 64 -65 0
32 52 66 -67 0
52 66 -67 567 0
-66 67 0
-52 -66 0
-32 -66 -567 0
37 67 68 -69 -603 0
-67 69 0
-67 -68 0
-67 603 0
-37 -67 0
68 -556 606 0
68 -606 623 0
68 -541 623 0
-68 556 -623 0
-68 -606 -623 0
-68 541 556 606 0
69 -594 -621 622 0
-69 594 0
-69 621 0
-69 -622 0
-39 70 594 0
-70 -594 0
39 -70 0
-8 71 -72 90 -104 0
-71 104 0
8 -71 0
-71 72 0
-71 -90 0
72 73 77 81 -87 0
-72 87 0
-72 -81 0
-72 -73 0
-72 -77 0
73 -74 -539 0
11 73 -74 0
-73 74 0
-11 -73 539 0
74 -75 -539 0
12 74 539 0
-12 -74 539 0
-74 75 -539 0
75 -76 -634 0
12 75 76 0
-12 -75 76 0
-75 -76 634 0
-11 17 76 0
11 -76 0
-17 -76 0
-24 77 -78 0
77 -78 -79 -551 0
-77 78 0
24 -77 79 0
24 -77 551 0
78 539 541 0
-78 -539 0
-78 -541 0
79 -539 642 0
79 -80 539 0
-79 -539 -642 0
-79 80 539 0
80 -541 618 0
-25 80 541 0
-80 -541 -618 0
25 -80 541 0
81 -82 -84 0
-81 82 0
-81 84 0
82 -83 628 0
82 620 628 0
-82 -628 0
-82 83 -620 0
-33 83 541 0
-83 -541 0
33 -83 0
84 85 539 0
-84 -539 0
-84 -85 0
-83 85 86 627 0
-83 85 620 627 0
83 -85 0
-85 -627 0
-85 -86 -620 0
29 86 541 0
-86 -541 0
-29 -86 0
87 -88 -648 0
87 -88 -89 0
-87 88 0
-87 89 648 0
88 -629 0
-37 88 -620 0
-37 88 630 0
37 -88 629 0
-88 620 629 -630 0
-35 89 539 0
-89 -539 0
35 -89 0
-75 90 -91 0
90 97 -539 0
-75 90 -539 0
90 -91 97 0
75 -90 -97 0
-90 91 539 0
91 92 96 0
-12 91 92 -95 0
-91 -92 0
12 -91 -96 0
-91 95 -96 0
92 541 635 641 0
92 93 -541 635 -641 0
-92 -541 641 0
-92 -93 -641 0
-92 -635 0
-92 541 -641 0
93 -94 -541 -638 0
93 -94 541 -639 0
-93 94 0
-93 -541 638 0
-93 541 639 0
94 588 -636 0
94 -636 -637 0
-94 636 0
-94 -588 637 0
-80 -85 95 640 0
-80 95 629 640 0
80 -95 0
-95 -640 0
85 -95 -629 0
-93 96 -541 -635 0
-96 541 0
-96 635 0
93 -96 0
-88 97 -98 -101 -103 0
-97 103 0
88 -97 0
-97 101 0
-97 98 0
-85 98 99 0
82 98 99 0
-98 -99 0
-82 85 -98 0
99 100 629 0
-99 -629 0
-99 -100 0
-37 100 -620 0
100 620 630 0
-100 620 -630 0
37 -100 -620 0
101 102 -541 0
-23 101 102 0
-101 -102 0
23 -101 541 0
35 102 631 0
-102 -631 0
-35 -102 0
24 102 103 -539 541 0
-102 -103 0
-24 -103 0
-103 539 0
-103 -541 0
-9 77 -98 104 -105 0
-104 105 0
9 -104 0
98 -104 0
-77 -104 0
-32 -101 105 -106 0
85 -101 105 -106 0
-105 106 0
101 -105 0
32 -85 -105 0
100 102 106 -107 -109 0
-100 -106 0
-106 109 0
-106 107 0
-102 -106 0
107 -108 -648 0
107 -108 539 631 0
-107 108 0
-107 -631 648 0
-107 -539 648 0
108 540 -622 0
108 -540 622 0
-108 -540 -622 0
-108 540 622 0
-37 109 -110 0
109 -110 -629 0
-109 110 0
37 -109 629 0
110 -538 -626 -646 647 0
-110 646 0
-110 -647 0
-110 538 0
-110 626 0
111 -112 -152 674 -709 0
-111 -674 0
-111 152 0
-111 112 0
-111 709 0
-71 112 113 142 -145 0
-112 145 0
-112 -142 0
71 -112 0
-112 -113 0
113 -114 127 0
113 131 -537 0
113 127 -537 0
113 -114 131 0
-113 114 537 0
-113 -127 -131 0
114 115 126 0
74 114 115 -119 0
-114 -115 0
-74 -114 -126 0
-114 119 -126 0
-78 115 661 664 0
78 115 116 661 -664 0
-78 -115 -664 0
78 -115 -116 0
-115 -661 0
78 -115 664 0
-94 116 -117 0
94 -116 0
-116 117 0
117 -539 -662 0
117 -118 539 0
-117 118 539 0
-117 -539 662 0
118 -541 -638 0
118 541 -639 0
-118 541 639 0
-118 -541 638 0
-79 119 -120 663 0
-79 119 654 663 0
79 -119 0
-119 -663 0
-119 120 -654 0
120 123 645 652 0
120 -121 123 652 0
-120 -123 0
-120 -652 0
-120 121 -645 0
121 -539 645 0
121 -122 539 0
-121 -539 -645 0
-121 122 539 0
86 122 541 0
86 122 620 0
-86 -122 0
-122 -541 -620 0
123 124 125 0
-123 -124 0
-123 -125 0
124 620 644 0
-124 -620 0
-124 -644 0
-83 125 539 0
-124 125 -539 0
124 -125 -539 0
83 -125 539 0
78 -116 126 -661 0
-126 661 0
-78 -126 0
116 -126 0
74 127 128 0
127 -128 660 0
-74 -127 128 0
-127 -128 -660 0
128 -129 -130 0
-78 128 -129 610 0
-128 129 0
-128 130 -610 0
78 -128 130 0
-11 129 539 0
-129 -539 0
11 -129 0
-18 130 610 0
-18 130 560 0
18 -130 0
-130 -560 -610 0
131 -132 -138 -139 -141 0
-131 141 0
-131 132 0
-131 139 0
-131 138 0
132 -133 137 0
-132 133 0
-132 -137 0
133 134 136 0
-120 133 134 0
-133 -134 0
120 -133 -136 0
134 135 654 0
-134 -654 0
-134 -135 0
-37 135 -645 0
135 645 656 0
-135 645 -656 0
37 -135 -645 0
-125 136 653 0
136 645 653 0
-136 -653 0
125 -136 -645 0
89 137 657 0
-137 -657 0
-89 -137 0
77 137 138 0
-77 -138 0
-137 -138 0
139 -654 0
-37 -135 139 0
-135 139 -140 0
135 -139 654 0
37 -139 140 654 0
-124 140 655 0
-140 -655 0
124 -140 0
24 -78 141 -537 0
-141 537 0
-24 -141 0
78 -141 0
142 143 144 0
11 142 143 0
-142 -143 0
-11 -142 -144 0
-127 143 -537 0
74 143 537 0
-74 -143 537 0
127 -143 -537 0
144 537 539 0
-144 -537 0
-144 -539 0
145 146 -149 -671 0
145 146 -149 -151 0
-145 149 0
-145 -146 0
-145 151 671 0
-24 146 -147 0
146 -147 148 -551 0
-146 147 0
24 -146 -148 0
24 -146 551 0
-144 147 541 0
-147 -541 0
144 -147 0
148 -537 -665 0
79 148 537 0
-148 -537 665 0
-79 -148 537 0
-120 -139 149 0
-139 149 150 0
139 -149 0
120 -149 -150 0
-136 150 537 0
-150 -537 0
136 -150 0
-35 -144 151 0
35 -151 0
144 -151 0
-72 142 152 -153 0
72 -152 0
-142 -152 0
-152 153 0
73 -132 146 153 -154 0
132 -153 0
-146 -153 0
-73 -153 0
-153 154 0
-133 -138 -149 154 -155 0
-154 155 0
133 -154 0
149 -154 0
138 -154 0
155 156 -158 -654 0
-100 155 156 -158 0
-155 158 0
-155 -156 0
100 -155 654 0
-120 156 157 0
120 -156 0
-156 -157 0
-82 157 539 0
-157 -539 0
82 -157 0
137 158 159 -160 0
158 159 -160 -537 0
-158 160 0
-158 -159 0
-137 -158 537 0
37 140 159 654 0
-159 -654 0
-140 -159 0
-37 -159 0
135 160 -162 -671 0
135 160 -161 -162 0
-160 162 0
-135 -160 0
-160 161 671 0
161 537 657 0
-161 -537 0
-161 -657 0
162 -536 -651 -669 670 0
-162 669 0
-162 -670 0
-162 536 0
-162 651 0
163 -164 -179 690 -708 0
-163 -690 0
-163 179 0
-163 164 0
-163 708 0
164 -165 -177 178 686 0
-164 -686 0
-164 -178 0
-164 177 0
-164 165 0
-151 165 -166 0
165 -166 -687 0
-165 166 0
151 -165 687 0
142 146 166 -167 0
-166 167 0
-146 -166 0
-142 -166 0
167 -171 174 0
167 168 174 0
-167 -174 0
-167 -168 171 0
168 -169 676 0
168 668 676 0
-168 -676 0
-168 169 -668 0
-125 169 537 0
169 -170 -537 0
-169 170 -537 0
125 -169 537 0
170 645 667 0
-170 -645 0
-170 -667 0
171 -172 -173 0
171 -173 668 0
-171 173 0
-171 172 -668 0
172 -537 668 0
-121 172 537 0
-172 -537 -668 0
121 -172 537 0
-170 173 675 0
-125 173 537 675 0
-173 -675 0
170 -173 -537 0
125 170 -173 0
174 175 677 0
37 174 176 677 0
-174 -677 0
-37 -174 -175 0
-174 -175 -176 0
-37 175 -668 0
175 668 679 0
-175 668 -679 0
37 -175 -668 0
-170 176 678 0
-176 -678 0
170 -176 0
-151 -166 177 0
-166 177 -680 0
166 -177 0
151 -177 680 0
178 -680 687 0
-178 680 0
-178 -687 0
-177 179 180 -181 0
-177 179 -181 -188 0
177 -179 0
-179 181 0
-179 -180 188 0
-94 -117 180 537 0
-94 180 -537 -683 0
94 -180 0
-180 -537 683 0
117 -180 537 0
-112 -152 -167 181 -182 0
-181 182 0
112 -181 0
167 -181 0
152 -181 0
171 182 183 -184 0
-150 182 183 -184 0
-182 184 0
-182 -183 0
150 -171 -182 0
180 183 -535 0
-183 535 0
-180 -183 0
175 184 -185 -677 0
-135 175 184 -185 0
-184 185 0
-175 -184 0
135 -184 677 0
185 186 -187 -534 686 0
185 186 -187 534 -686 0
-185 187 0
-185 534 686 0
-185 -186 0
-185 -534 -686 0
-78 186 537 0
-186 -537 0
78 -186 0
187 -674 -680 -685 0
-187 674 0
-187 680 0
-187 685 0
188 189 -535 0
143 188 -535 0
-188 535 0
-143 -188 -189 0
148 -171 189 684 0
148 189 677 684 0
-148 -189 0
-189 -684 0
171 -189 -677 0
-164 -179 190 191 -195 0
-190 195 0
164 -190 0
179 -190 0
-190 -191 0
-180 191 533 0
-143 -180 191 -192 0
180 -191 0
-191 192 -533 0
143 -191 -533 0
148 192 -193 701 0
148 192 695 701 0
-148 -192 0
-192 -701 0
-192 193 -695 0
193 194 691 693 0
-172 193 194 691 0
-193 -691 0
-193 -194 0
172 -193 -693 0
169 194 -668 0
169 194 -692 0
-169 -194 0
-194 668 692 0
146 -165 195 -196 -201 0
-146 -195 0
-195 201 0
-195 196 0
165 -195 0
196 197 -198 533 0
-180 196 197 -198 0
-196 198 0
-196 -197 0
180 -196 -533 0
-37 197 -693 0
197 693 697 0
-197 693 -697 0
37 -197 -693 0
198 -199 -200 -531 -704 0
-198 200 0
-198 531 0
-198 199 0
-198 704 0
199 -690 -695 -698 -702 0
-199 702 0
-199 690 0
-199 698 0
-199 695 0
147 200 -532 703 707 0
-147 -200 0
-200 -707 0
-200 532 0
-200 -703 0
-168 -193 201 0
193 201 202 0
168 -193 -201 0
193 -201 -202 0
-169 202 694 0
202 693 694 0
-202 -694 0
169 -202 -693 0
203 212 -526 0
203 -212 -216 0
203 -204 212 0
203 -212 526 0
-203 -212 216 -526 0
-203 204 212 526 0
204 -205 -780 0
204 205 780 0
-204 -205 780 0
-204 205 -780 0
205 206 -211 0
-205 -206 0
-205 211 0
206 207 210 0
206 207 -541 0
-206 -207 0
-206 -210 541 0
-78 207 -208 209 0
207 -208 209 710 0
-207 208 0
-207 -209 0
78 -207 -710 0
208 531 708 709 0
-208 -531 0
-208 -709 0
-208 -708 0
209 -541 -711 0
-209 541 0
-209 711 0
-144 208 210 0
144 -210 0
-208 -210 0
211 528 530 0
-211 -528 0
-211 -530 0
205 212 -213 -214 0
-212 214 0
-212 213 0
-205 -212 0
213 -637 -716 0
213 -716 719 0
-213 716 0
-213 637 -719 0
214 -528 -778 0
214 -215 528 0
-214 215 528 0
-214 -528 778 0
215 530 -732 0
215 -530 -757 0
-215 -530 757 0
-215 530 732 0
216 -234 -235 0
216 -217 -235 0
-216 235 0
-216 217 234 0
217 -218 528 0
217 -229 -528 0
-217 229 -528 0
-217 218 528 0
218 -219 -530 0
218 530 725 0
-218 530 -725 0
-218 219 -530 0
219 220 725 0
219 -220 728 0
-219 -220 -728 0
-219 220 -725 0
220 -221 -226 0
220 -226 729 0
-220 226 0
-220 221 -729 0
208 221 -222 0
-208 221 -224 0
-208 221 -223 0
208 -221 222 0
-208 -221 223 224 0
78 -130 222 0
-78 222 537 610 0
-130 222 -537 0
78 130 -222 0
130 -222 -537 0
-78 -222 537 -610 0
209 223 610 710 0
-130 -209 223 710 0
-223 -710 0
209 -223 -610 0
130 -209 -223 0
224 -225 -710 0
-224 710 0
-224 225 0
-78 225 610 0
78 -130 225 0
-78 -225 -610 0
78 130 -225 0
226 227 -228 0
226 727 730 0
226 -228 727 0
226 227 730 0
-226 -227 -727 0
-226 228 -730 0
206 227 -612 0
-227 612 0
-206 -227 0
-147 228 560 0
-207 228 560 0
-228 -560 0
147 207 -228 0
-218 229 230 0
229 -230 755 0
-229 -230 -755 0
218 -229 230 0
230 232 233 729 0
230 -231 232 233 0
-230 -233 0
-230 -232 0
-230 231 -729 0
-221 231 530 0
-231 -530 0
221 -231 0
232 -530 -727 0
-227 232 -727 0
-232 727 0
227 -232 530 0
233 -530 -730 0
228 233 -730 0
-233 730 0
-228 -233 530 0
234 720 721 734 0
-234 -720 0
-234 -734 0
-234 -721 0
235 260 772 779 0
235 -236 260 779 0
-235 -260 0
-235 -779 0
-235 236 -772 0
236 246 763 770 0
236 -237 246 770 0
-236 -246 0
-236 -770 0
-236 237 -763 0
237 -241 528 0
237 -528 763 0
237 -238 528 0
-237 -528 -763 0
-237 238 241 528 0
-172 238 239 530 0
-208 238 239 530 0
-238 -530 0
-238 -239 0
172 208 -238 0
121 -208 239 -710 0
-208 239 -240 710 0
208 -239 0
-239 240 710 0
-121 -239 -710 0
-209 240 -620 0
29 209 240 0
-29 209 -240 0
-209 -240 620 0
241 242 -530 0
-241 530 0
-241 -242 0
242 -531 -739 0
242 -245 531 0
242 -243 531 0
-242 -531 739 0
-242 243 245 531 0
243 -668 708 -709 0
243 244 708 709 0
-243 -708 0
-243 -244 709 0
-243 668 -709 0
244 645 -710 0
244 620 710 -711 0
-244 -645 -710 0
-244 -620 710 0
-244 710 711 0
245 -693 -708 0
-245 693 0
-245 708 0
246 247 259 0
-246 -247 0
-246 -259 0
247 -248 528 0
-247 -528 0
-247 248 0
248 252 -530 0
248 -249 252 0
-248 -252 0
-248 249 530 0
-169 249 250 530 0
-208 249 250 530 0
-249 -530 0
-249 -250 0
169 208 -249 0
125 -208 250 251 0
-208 250 251 710 0
208 -250 0
-250 -251 0
-125 -250 -710 0
-33 209 251 710 0
-251 -710 0
33 -251 0
-209 -251 0
249 252 -253 0
-249 -252 0
-252 253 0
253 254 -693 0
253 254 -738 0
253 254 531 0
-253 -254 0
-253 -531 693 738 0
254 -256 531 708 0
254 -255 531 -708 0
-254 -531 0
-254 255 -708 0
-254 256 708 0
255 668 692 0
-255 -668 0
-255 -692 0
-170 256 -709 0
256 -258 709 0
256 -257 709 0
170 -256 -709 0
-256 257 258 709 0
-64 257 710 711 0
64 -257 0
-257 -711 0
-257 -710 0
-124 258 -710 0
-258 710 0
124 -258 0
242 259 762 0
-259 -762 0
-242 -259 0
260 -528 -760 0
260 -261 528 0
-260 261 528 0
-260 -528 760 0
261 262 -736 0
261 262 530 0
-261 -262 0
-261 -530 736 0
262 263 530 0
-262 -530 0
-262 -263 0
-208 263 -264 0
-148 208 263 0
-208 -263 264 0
148 208 -263 0
79 264 -710 0
264 -265 710 0
-79 -264 -710 0
-264 265 710 0
-209 265 -618 0
25 209 265 0
-25 209 -265 0
-209 -265 618 0
217 266 -267 -269 -387 0
-217 266 267 -269 -387 0
-266 387 0
217 -266 267 0
-266 269 0
-217 -266 -267 0
267 -822 -843 0
267 -268 -843 0
-267 843 0
-267 268 822 0
268 -815 -816 -844 0
-268 815 0
-268 816 0
-268 844 0
269 270 272 274 -276 0
269 270 -272 -274 -276 0
-269 276 0
-269 -272 274 0
-269 -270 0
-269 272 -274 0
270 -271 881 0
270 271 -881 0
-270 -271 -881 0
-270 271 881 0
271 -528 -729 0
231 271 -729 0
231 271 528 530 0
-271 -528 729 0
-231 -271 528 0
-271 -530 729 0
272 273 790 0
272 789 790 0
-272 -790 0
-272 -273 -789 0
247 259 273 0
247 273 528 0
-247 -273 0
-259 -273 -528 0
274 -275 865 0
-274 -865 0
-274 275 0
275 -841 860 0
275 841 859 0
-275 841 -859 0
-275 -841 -860 0
-273 275 276 277 -281 0
273 -275 276 277 -281 0
-276 281 0
273 275 -276 0
-276 -277 0
-273 -275 -276 0
237 277 -278 0
-237 277 278 0
-237 -277 -278 0
237 -277 278 0
278 -280 830 0
278 -280 -841 0
278 279 -280 0
-278 280 0
-278 -279 -830 841 0
279 860 862 863 -864 0
-279 864 0
-279 -863 0
-279 -860 0
-279 -862 0
280 862 863 0
280 841 860 0
280 860 863 0
280 841 862 0
-280 -860 -862 0
-280 -841 -863 0
281 -282 -284 -303 849 0
281 282 -284 -303 -849 0
-281 303 0
-281 282 849 0
-281 284 0
-281 -282 -849 0
-211 282 -283 0
211 282 717 0
-211 -282 283 0
211 -282 -717 0
206 283 586 0
-283 -586 0
-206 -283 0
284 -285 -290 -296 0
284 285 290 -296 0
-284 296 0
-284 -285 290 0
-284 285 -290 0
285 -287 835 0
285 286 -287 837 0
-285 287 0
-285 -286 -835 0
-285 -835 -837 0
286 813 -847 0
-286 -813 0
-286 847 0
287 288 289 836 0
287 -288 813 836 0
-287 -836 0
-287 288 -289 0
-287 -288 -813 0
288 -814 -848 0
-288 814 0
-288 848 0
289 -837 -847 0
-289 837 0
-289 847 0
206 290 -291 292 -293 0
-290 291 0
-290 -292 0
-206 -290 0
-290 293 0
-205 291 573 0
-291 -573 0
205 -291 0
292 -572 -574 0
292 550 -572 -584 0
-292 572 0
-292 -550 574 0
-292 574 584 0
293 294 295 573 0
293 -294 550 573 0
-293 -573 0
-293 294 -295 0
-293 -294 -550 0
294 -551 -585 0
-294 551 0
-294 585 0
295 -574 -584 0
-295 574 0
-295 584 0
296 297 -301 302 -819 0
296 -297 301 -302 819 0
296 297 301 -302 -819 0
296 -297 -301 302 819 0
-296 -297 -819 0
-296 297 819 0
-296 301 302 0
-296 -301 -302 0
-211 297 298 0
211 -297 0
-297 -298 0
-208 298 -299 0
151 208 298 0
-208 298 -300 0
-151 208 -298 0
-208 -298 299 300 0
89 299 -710 0
-299 710 0
-89 -299 0
300 -556 710 0
-209 300 710 0
-300 -710 0
209 -300 556 0
-130 301 804 0
-301 -804 0
130 -301 0
302 -884 -890 0
302 884 -889 890 0
-302 889 890 0
-302 884 -890 0
-302 -884 890 0
303 -304 381 -386 823 0
303 -304 381 386 -823 0
-303 -381 0
-303 -386 -823 0
-303 304 0
-303 386 823 0
304 -305 -308 -311 -328 0
-304 328 0
-304 305 0
-304 311 0
-304 308 0
305 -306 307 -874 876 0
305 306 -307 874 -876 0
305 306 307 874 876 0
305 -306 -307 -874 -876 0
-305 306 -874 0
-305 -306 874 0
-305 -307 876 0
-305 307 -876 0
-211 -227 306 0
211 306 -727 0
-211 227 -306 0
211 -306 727 0
-205 307 -799 0
-307 799 0
205 -307 0
-291 308 -309 -814 836 0
291 308 -309 -814 -836 0
-291 308 309 814 836 0
291 308 309 814 -836 0
-291 -308 -836 0
291 -308 836 0
-308 -309 814 0
-308 309 -814 0
-211 309 -310 0
211 -309 0
-309 310 0
206 310 -551 0
-310 551 0
-206 -310 0
311 -312 326 830 0
311 -312 324 326 0
-311 312 0
-311 -326 0
-311 -324 -830 0
312 313 314 315 -317 0
312 313 -314 -315 -317 0
-312 317 0
-312 -314 315 0
-312 -313 0
-312 314 -315 0
214 313 -877 0
-313 877 0
-214 -313 0
314 763 788 792 0
-314 -763 0
-314 -792 0
-314 -788 0
315 -316 867 0
-315 -867 0
-315 316 0
316 861 862 0
316 -841 862 0
316 829 841 -862 0
-316 -829 -862 0
-316 -841 -862 0
-316 841 -861 862 0
317 -318 322 -877 0
214 317 -318 322 0
-317 318 0
-317 -322 0
-214 -317 877 0
267 318 319 0
318 814 823 0
318 319 823 0
267 318 814 0
-267 -318 -823 0
-318 -319 -814 0
319 320 321 0
319 320 -836 -837 0
-319 -320 0
-319 -321 836 0
-319 -321 837 0
320 -812 -834 0
320 -812 -835 0
-320 812 0
-320 834 835 0
321 813 -834 -835 0
-321 835 0
-321 834 0
-321 -813 0
322 323 789 793 0
-37 322 323 -789 0
37 322 789 793 0
-322 789 -793 0
37 -322 -789 0
-37 -322 -323 0
323 840 841 0
323 828 -841 0
-323 -840 841 0
-323 -828 -841 0
-316 324 -325 0
-275 324 -325 0
-324 325 0
275 316 -324 0
-278 325 858 0
-325 -858 0
278 -325 0
-323 326 327 0
315 326 327 866 0
-326 -327 0
323 -326 -866 0
-315 323 -326 0
-37 327 -789 0
327 789 793 0
-327 789 -793 0
37 -327 -789 0
-205 328 -329 -339 -375 0
-328 375 0
205 -328 0
-328 339 0
-328 329 0
329 330 -333 338 729 0
329 330 333 338 -729 0
-329 -330 0
-329 -333 -729 0
-329 -338 0
-329 333 729 0
330 -331 -332 0
330 331 332 0
-330 331 -332 0
-330 -331 332 0
331 528 530 726 0
-331 -528 0
-331 -726 0
-331 -530 0
332 -826 -880 0
-268 332 -880 0
-332 880 0
268 -332 826 0
333 335 -337 0
333 -334 -337 -887 0
-333 337 0
-333 334 -335 0
-333 -335 887 0
334 824 833 0
-334 -824 0
-334 -833 0
335 -336 823 881 884 0
-335 336 0
-335 -884 0
-335 -823 0
-335 -881 0
336 -882 883 0
-336 882 0
-336 -883 0
337 881 883 0
337 823 884 0
337 881 884 0
337 823 883 0
-337 -823 -881 0
-337 -883 -884 0
-274 325 338 0
274 -338 0
-325 -338 0
339 -340 -357 -362 -365 0
-339 365 0
-339 340 0
-339 362 0
-339 357 0
340 -341 -353 819 0
340 -341 -351 -353 0
-340 353 0
-340 341 0
-340 351 -819 0
341 -342 -347 -348 -349 0
-341 349 0
-341 342 0
-341 348 0
-341 347 0
342 -343 345 -826 0
342 -343 345 346 0
-342 343 0
-342 -345 0
-342 -346 826 0
343 -344 849 0
343 -344 -850 0
343 -344 851 0
-343 344 0
-343 -849 850 -851 0
344 -827 831 0
344 -830 832 0
344 -827 -830 0
344 831 832 0
-344 827 -832 0
-344 830 -831 0
345 -791 866 0
345 -832 866 0
-345 -866 0
-345 791 832 0
346 815 -823 0
-346 -815 0
-346 823 0
347 -832 -852 853 -857 0
-347 857 0
-347 832 0
-347 852 0
-347 -853 0
348 -730 -734 741 801 0
-348 734 0
-348 -801 0
-348 730 0
-348 -741 0
349 350 819 0
349 350 -854 -869 0
-349 -350 0
-349 -819 854 0
-349 -819 869 0
350 815 824 0
350 -815 816 0
-350 -815 -816 0
-350 815 -824 0
351 -352 -820 -838 0
351 -352 -838 -839 0
-351 352 0
-351 838 0
-351 820 839 0
352 -818 821 0
352 817 -820 0
352 -818 -820 0
352 817 821 0
-352 820 -821 0
-352 -817 818 0
353 -354 356 637 878 0
353 -354 356 -637 -878 0
-353 -356 0
-353 -637 878 0
-353 354 0
-353 637 -878 0
354 355 823 0
354 355 -815 0
354 355 -822 0
-354 -355 0
-354 815 822 -823 0
355 827 -828 -829 0
-355 829 0
-355 828 0
-355 -827 0
356 812 -813 -814 0
-356 814 0
-356 813 0
-356 -812 0
357 -358 -359 719 851 0
357 -358 -359 -719 -851 0
-357 359 0
-357 -719 851 0
-357 358 0
-357 719 -851 0
358 -789 -832 0
358 569 -802 0
358 569 -789 0
358 -802 -832 0
-358 -569 832 0
-358 789 802 0
359 360 361 797 873 0
359 360 361 -797 -873 0
-359 -360 0
-359 -797 873 0
-359 -361 0
-359 797 -873 0
360 617 -887 0
-360 -617 0
-360 887 0
361 569 -832 0
-361 -569 0
-361 832 0
362 363 364 0
362 363 815 0
362 363 822 0
-362 -363 0
-362 -364 -815 -822 0
323 363 827 -842 0
-363 -827 0
-363 842 0
-323 -363 0
364 -823 -824 825 0
-364 823 0
-364 824 0
-364 -825 0
365 -366 -369 -370 -371 0
-365 371 0
-365 366 0
-365 370 0
-365 369 0
366 367 368 794 869 0
366 367 368 -794 -869 0
-366 -367 0
-366 -794 869 0
-366 -368 0
-366 794 -869 0
367 -845 854 0
-367 845 0
-367 -854 0
368 -819 845 0
-368 819 0
-368 -845 0
369 -717 -720 -721 -723 0
-369 723 0
-369 717 0
-369 721 0
-369 720 0
370 617 -722 727 0
370 -722 727 -887 0
-370 722 0
-370 -727 0
-370 -617 887 0
371 -372 -373 803 888 0
371 -372 -373 -803 -888 0
-371 373 0
-371 -803 888 0
-371 372 0
-371 803 -888 0
372 -716 -853 0
372 -805 872 0
372 -716 -805 0
372 -853 872 0
-372 716 -872 0
-372 805 853 0
334 373 -374 716 0
334 373 -374 -872 0
-373 374 0
-334 -373 0
-373 -716 872 0
374 853 866 0
374 -791 805 0
374 805 866 0
374 -791 853 0
-374 -805 -853 0
-374 791 -866 0
274 375 -376 380 0
375 -376 380 830 0
-375 376 0
-375 -380 0
-274 -375 -830 0
376 379 807 -850 0
376 -377 -379 850 0
376 -379 807 850 0
376 -377 379 -850 0
-376 379 850 0
-376 -379 -850 0
-376 377 -807 0
377 -809 -810 0
377 809 811 0
377 378 -809 0
-377 809 -811 0
-377 -378 -809 810 0
378 -806 808 0
-378 806 0
-378 -808 0
-211 379 718 0
-379 -718 0
211 -379 0
-37 323 380 0
323 380 866 0
-323 -380 0
37 -380 -866 0
381 -382 879 0
381 382 -879 0
-381 -382 -879 0
-381 382 879 0
-211 382 -383 0
211 382 -719 0
-211 -382 383 0
211 -382 719 0
-207 383 385 -800 0
207 383 384 385 0
-383 -385 0
-207 -383 800 0
207 -383 -384 0
210 384 588 0
-384 -588 0
-210 -384 0
-210 385 541 800 0
-210 385 -541 588 0
210 -385 0
-385 541 -800 0
-385 -541 -588 0
386 -530 730 0
-228 386 528 530 0
386 -528 730 0
-386 -528 -730 0
228 -386 528 530 0
-386 -530 -730 0
260 -319 -324 387 -388 0
-260 319 -324 387 -388 0
260 -319 324 387 388 0
-260 319 324 387 388 0
324 -387 -388 0
-324 -387 388 0
-260 -319 -387 0
260 319 -387 0
388 389 787 789 0
-237 388 389 787 0
-388 -787 0
-388 -389 0
237 -388 -789 0
-273 389 -788 0
-273 389 -763 0
273 -389 0
-389 763 788 0
390 391 -392 395 -418 0
-390 392 0
-390 -395 0
-390 -391 0
-390 418 0
-217 386 391 721 0
-331 386 391 721 0
-391 -721 0
-386 -391 0
217 331 -391 0
-386 392 393 0
392 393 394 0
-217 392 393 0
-392 -393 0
217 386 -392 -394 0
393 721 722 0
-393 -721 0
-393 -722 0
394 -721 -722 727 0
-394 721 0
-394 722 0
-394 -727 0
395 396 413 0
395 403 413 0
229 395 413 0
-395 -413 0
-229 -395 -396 -403 0
396 -397 -402 0
396 -397 401 0
-396 397 0
-396 -401 402 0
397 398 -749 0
397 398 399 -400 0
-397 -398 0
-397 400 749 0
-397 -399 749 0
398 722 723 0
-398 -722 0
-398 -723 0
37 399 -750 0
37 -253 399 0
-37 -399 0
253 -399 750 0
-37 -242 400 0
242 400 751 0
242 -400 -751 0
37 -242 -400 0
242 401 748 0
-248 401 748 0
-401 -748 0
-242 248 -401 0
-238 252 402 747 0
242 252 402 747 0
-402 -747 0
-252 -402 0
238 -242 -402 0
403 -404 408 -410 -411 0
-403 411 0
-403 404 0
-403 410 0
-403 -408 0
404 405 406 0
404 405 -530 0
-404 -405 0
-404 -406 530 0
405 720 -721 0
-405 -720 0
-405 721 0
283 406 718 -719 0
283 406 -407 -718 0
-283 -406 0
-406 407 -718 0
-406 718 719 0
407 637 -716 717 0
-407 -637 0
-407 716 0
-407 -717 0
408 409 752 0
-408 -752 0
-408 -409 0
298 409 530 0
-409 -530 0
-298 -409 0
206 410 530 0
-410 -530 0
-206 -410 0
411 -412 -528 -721 0
411 -412 -528 730 0
-411 412 0
-411 528 0
-411 721 -730 0
398 412 -720 -721 0
398 412 721 -722 0
-398 -412 0
-412 720 -721 0
-412 721 722 0
413 414 -417 528 0
413 -414 -415 528 0
-413 -528 0
-413 -414 415 0
-413 414 417 0
-213 -215 410 414 0
213 -414 0
215 -414 0
-410 -414 0
415 416 -756 0
218 234 415 -756 0
-415 756 0
-218 -415 -416 0
-234 -415 -416 0
261 -402 416 758 0
261 416 749 758 0
-261 -416 0
-416 -758 0
402 -416 -749 0
410 417 756 -759 0
-410 417 756 759 0
-417 -756 0
-410 -417 -759 0
410 -417 759 0
418 -419 420 -473 0
418 420 -471 -473 0
-418 473 0
-418 -420 0
-418 419 471 0
419 -530 730 0
-228 419 530 0
-419 -530 -730 0
228 -419 530 0
420 447 -530 0
420 421 423 447 0
-420 -447 0
-420 -421 530 0
-420 -423 530 0
206 421 731 735 0
-206 421 422 731 -735 0
206 -421 -735 0
-206 -421 735 0
-421 -731 0
-421 -422 -735 0
-213 422 -732 0
-422 732 0
213 -422 0
-206 -422 423 424 -731 0
422 -423 0
-423 -424 0
-423 731 0
206 -423 0
263 424 -425 -446 0
263 424 441 -446 0
-263 -424 0
-424 446 0
-424 425 -441 0
-193 425 -531 0
425 -426 531 0
-425 426 531 0
193 -425 -531 0
-171 426 -708 0
426 -433 708 0
426 -427 708 0
171 -426 -708 0
-426 427 433 708 0
427 432 537 -709 0
427 -428 432 -709 0
-427 709 0
-427 -432 0
-427 428 -537 0
-170 428 429 0
-140 428 429 668 0
-428 -429 0
170 -428 -668 0
140 170 -428 0
429 -430 -666 0
-429 666 0
-429 430 0
-121 430 431 0
430 431 668 0
-430 -431 0
121 -430 -668 0
125 170 431 0
-125 -431 0
-170 -431 0
120 430 432 0
120 432 537 0
-120 -432 0
-430 -432 -537 0
433 -437 709 0
433 434 -436 709 0
-433 -709 0
-433 -434 437 0
-433 436 437 0
85 434 -435 -539 0
434 435 -539 -643 0
-434 539 0
-434 435 643 0
-85 -434 -435 0
122 435 -645 0
-435 645 0
-122 -435 0
-124 436 -539 -710 0
-85 436 539 -710 0
-436 710 0
124 -436 -539 0
85 -436 539 0
437 438 568 710 0
437 438 710 -711 0
-437 -438 0
-437 -710 0
-437 -568 711 0
438 439 -541 -711 0
65 438 439 -711 0
-438 711 0
-438 -439 0
-65 -438 541 0
-33 -63 439 -440 0
-63 -65 439 -440 0
-439 440 0
63 -439 0
33 65 -439 0
33 440 620 0
440 -541 619 620 0
-440 -620 0
-33 -440 541 0
-33 -440 -619 0
441 -531 -695 0
441 -442 531 0
-441 442 531 0
-441 -531 695 0
442 -677 -708 0
442 -443 708 0
-442 677 -708 0
-442 443 708 0
443 -654 -709 0
443 -444 709 0
-443 654 -709 0
-443 444 709 0
444 -629 -710 0
444 -445 710 0
-444 629 -710 0
-444 445 710 0
445 -603 -711 0
445 -564 711 0
-445 564 711 0
-445 603 -711 0
-234 446 733 0
446 725 733 0
-446 -733 0
234 -446 -725 0
-219 447 448 455 -461 0
-447 461 0
-447 -455 0
219 -447 0
-447 -448 0
425 448 449 0
-425 -448 0
-448 -449 0
202 449 -531 0
449 -450 531 0
-202 -449 -531 0
-449 450 531 0
168 450 -708 0
450 -451 708 0
-168 -450 -708 0
-450 451 708 0
150 451 -709 0
451 452 454 709 0
-150 -451 -709 0
-451 -454 709 0
-451 -452 709 0
452 -453 710 -711 0
452 567 710 711 0
-452 -710 0
-452 -567 711 0
-452 453 -711 0
-83 453 602 0
-453 -602 0
83 -453 0
-157 454 -710 0
-454 710 0
157 -454 0
441 455 -456 0
-441 -455 0
-455 456 0
197 456 -531 0
456 -457 531 0
-197 -456 -531 0
-456 457 531 0
175 457 -708 0
457 -458 708 0
-175 -457 -708 0
-457 458 708 0
135 458 -709 0
458 -459 709 0
-135 -458 -709 0
-458 459 709 0
100 459 -710 0
459 -460 710 0
-100 -459 -710 0
-459 460 710 0
37 460 -711 0
460 -569 711 0
-37 -460 -711 0
-460 569 711 0
-37 461 -467 0
-441 461 -467 0
461 -462 -467 0
-461 467 0
37 441 -461 462 0
462 463 531 0
-255 462 463 696 0
-462 -463 0
255 -462 -531 0
-462 -531 -696 0
463 -464 531 708 0
176 463 531 -708 0
-463 -531 0
-176 -463 -708 0
-463 464 708 0
464 465 709 0
140 464 465 0
-464 -465 0
-140 -464 -709 0
465 -466 579 711 0
-63 465 -466 -711 0
-465 466 0
63 -465 -711 0
-465 -579 711 0
466 709 710 0
-466 -709 0
-466 -710 0
206 406 467 -468 -469 0
-206 -467 0
-467 469 0
-467 468 0
-406 -467 0
405 468 -713 0
298 405 468 0
-405 -468 0
-298 -468 713 0
398 -412 469 470 -530 0
412 -469 0
-469 -470 0
-469 530 0
-398 -469 0
470 721 -730 0
-470 -721 0
-470 730 0
-218 471 -721 0
394 471 -721 0
218 394 471 472 0
-218 -471 721 0
218 -394 -471 0
-471 -472 721 0
472 530 726 0
-472 -530 0
-472 -726 0
-228 448 473 -477 0
448 473 -474 -477 0
-473 477 0
-448 -473 0
228 -473 474 0
-208 474 475 -721 0
-143 474 475 -721 0
-474 721 0
-474 -475 0
143 208 -474 0
-208 475 -476 710 0
-74 -208 475 -710 0
208 -475 0
74 -475 -710 0
-475 476 710 0
-13 476 711 0
12 476 -711 0
-12 -476 -711 0
13 -476 711 0
477 -478 -482 -485 -524 0
-477 524 0
-477 478 0
-477 485 0
-477 482 0
272 388 478 -480 0
-388 478 -479 -480 0
-478 480 0
-388 -478 479 0
-272 388 -478 0
273 479 771 0
479 763 771 0
-479 -771 0
-273 -479 -763 0
236 309 480 0
-260 480 -481 0
236 -260 480 0
309 480 -481 0
-236 -480 481 0
260 -309 -480 0
-401 481 528 0
-481 -528 0
401 -481 0
398 482 483 -484 0
398 482 483 -772 0
-482 -483 0
-398 -482 0
-482 484 772 0
236 -479 483 0
-236 -483 0
479 -483 0
-37 484 -763 0
484 763 774 0
-484 763 -774 0
37 -484 -763 0
-402 485 -486 -521 0
481 485 -486 -521 0
-485 521 0
-485 486 0
402 -481 -485 0
262 -397 486 -487 0
310 -397 486 -487 0
-486 487 0
397 -486 0
-262 -310 -486 0
-456 487 -488 520 0
-456 487 -488 -772 0
-487 488 0
456 -487 0
-487 -520 772 0
-404 488 -489 510 -511 0
-488 511 0
404 -488 0
-488 489 0
-488 -510 0
-205 408 489 -490 -495 0
-489 495 0
205 -489 0
-489 490 0
-408 -489 0
-228 490 -491 494 0
490 -491 -493 494 0
-490 491 0
-490 -494 0
228 -490 493 0
406 491 -492 0
406 491 -725 -726 0
-406 -491 0
-491 492 726 0
-491 492 725 0
206 492 724 0
14 206 492 563 0
-206 -492 0
-14 -492 -724 0
-492 -563 -724 0
394 493 -721 0
493 -721 725 0
394 493 -725 -726 0
-493 721 725 0
-394 -493 -725 0
-493 721 726 0
206 494 -586 587 -588 0
-494 588 0
-206 -494 0
-494 586 0
-494 -587 0
484 495 -496 504 -505 0
-495 496 0
-495 -504 0
-484 -495 0
-495 505 0
496 -497 -500 -502 -503 0
-496 503 0
-496 497 0
-496 502 0
-496 500 0
497 498 499 527 -765 0
497 498 499 -527 765 0
-497 -498 0
-497 527 765 0
-497 -499 0
-497 -527 -765 0
498 -775 783 0
-498 775 0
-498 -783 0
499 -529 -742 0
-499 529 0
-499 742 0
393 500 -501 -529 0
393 500 -501 -742 0
-500 501 0
-393 -500 0
-500 529 742 0
398 501 -525 712 0
-501 525 0
-398 -501 0
-501 -712 0
502 -740 741 742 -746 0
-502 746 0
-502 -742 0
-502 740 0
-502 -741 0
503 -720 -721 -722 -723 0
-503 723 0
-503 720 0
-503 722 0
-503 721 0
37 314 504 791 0
-504 -791 0
-314 -504 0
-37 -504 0
505 -506 509 -766 0
505 -506 -508 509 0
-505 506 0
-505 -509 0
-505 508 766 0
506 -507 782 -786 -791 0
-506 -782 0
-506 507 0
-506 791 0
-506 786 0
507 -764 765 -769 -781 0
-507 781 0
-507 764 0
-507 769 0
-507 -765 0
508 528 752 0
-508 -528 0
-508 -752 0
509 -530 743 0
509 -713 743 0
-509 -743 0
-509 530 713 0
282 379 -407 510 0
282 -379 510 -719 0
-282 -510 0
379 407 -510 0
-379 -510 719 0
400 -441 511 -512 515 0
-400 -511 0
-511 -515 0
-511 512 0
441 -511 0
-468 512 -513 -766 0
-297 -468 512 -513 0
-512 513 0
468 -512 0
297 -512 766 0
-297 -409 513 0
513 -514 -743 0
-297 513 -743 0
-409 513 -514 0
297 -513 514 0
409 -513 743 0
508 514 -775 -783 -794 0
-514 794 0
-508 -514 0
-514 775 0
-514 783 0
-298 515 -531 704 0
-298 515 -516 531 0
298 -515 0
-515 516 531 0
-515 -531 -704 0
516 687 -708 0
516 -517 708 0
-516 -687 -708 0
-516 517 708 0
517 671 -709 0
517 -518 709 0
-517 -671 -709 0
-517 518 709 0
518 648 -710 0
518 -519 710 0
-518 -648 -710 0
-518 519 710 0
519 591 711 0
519 623 -711 0
-519 -623 -711 0
-519 -591 711 0
37 259 520 0
37 520 -773 0
-37 -520 0
-259 -520 773 0
456 521 -522 0
-441 521 -522 -749 0
-521 522 0
441 -456 -521 0
-456 -521 749 0
522 523 -772 0
-400 520 522 523 0
-522 -523 0
400 -522 772 0
-520 -522 772 0
263 -310 523 0
-263 -523 0
310 -523 0
-396 402 524 0
-396 449 524 530 0
396 -524 0
-402 -449 -524 0
-402 -524 -530 0
1 2 0
-1 -2 0
891 0

